100
128
10
5
11
27
16
61
53
44
64
40
53
3
55
16
34
46
18
19
57
10
7
60
19
37
7
6
52
16
14
62
14
60
26
46
37
2
27
14
20
34
12
30
30
60
40
38
41
35
27
11
48
11
32
32
53
20
41
2
59
5
44
13
52
63
13
2
23
3
45
5
19
16
25
47
50
20
36
38
12
13
47
64
19
43
12
22
7
26
35
20
3
55
20
16
28
20
5
53
55
2